Geometry = VaspFormat {
   <<< POSCAR_Primitive_Cell
}

Hamiltonian = DFTB {

  SCC = Yes
  MaxSccIterations = 100
  SccTolerance = 1e-08

  Filling = Fermi {
    Temperature [K] = 0.0
  }

  MaxAngularMomentum = {
    Ga = "d"
    As = "d"
  }

  SlaterKosterFiles = Type2FileNames {
    Prefix = "./"
    Separator = "-"
    Suffix = ".skf"
  }

  RangeSeparated = LC {
    GammaType = "truncated+damping"
    GSummationCutoff = 0.140693E+02
    GammaCutoff = 0.703465E+01
    Screening = NeighbourBased {
      CutoffReduction = 17.0
      Threshold = 1e-100
    }
  }

  KPointsAndWeights = SupercellFolding {
     3   0   0
     0   3   0
     0   0   3
    0.0 0.0 0.0
  }

}

Analysis {
  CalculateForces = No
}

Options {
  WriteAutotestTag = Yes
}

ParserOptions {
  ParserVersion = 11
}

Parallel {
  UseOmpThreads = No
  Groups = 1
}
