Geometry = GenFormat {
   <<< GaAs_Cubic8.gen
}

Hamiltonian = DFTB {

  SCC = Yes
  MaxSccIterations = 100
  SccTolerance = 1e-08

  Filling = Fermi {
    Temperature [K] = 0.0
  }

  MaxAngularMomentum = {
    Ga = "d"
    As = "d"
  }

  SlaterKosterFiles = Type2FileNames {
    Prefix = "slakos/origin/"
    Separator = "-"
    Suffix = ".skf"
  }

  RangeSeparated = LC {
    Screening = NeighbourBased {
      # GammaCutoff = 6.00107
      # GSummationCutoff = 28.7211
      Threshold = 1e-100
    }
  }

  KPointsAndWeights = SupercellFolding {
     1   0   0
     0   1   0
     0   0   1
    0.0 0.0 0.0
  }

}

Analysis {
  CalculateForces = No
}

Options {
  WriteAutotestTag = Yes
}

ParserOptions {
  ParserVersion = 11
}

Parallel {
  UseOmpThreads = No
  Groups = 1
}