Geometry = GenFormat {
   <<< Acene_rattled.gen
}

Hamiltonian = DFTB {

  SCC = Yes
  MaxSccIterations = 100
  SccTolerance = 1e-12

  Filling = Fermi {
    Temperature [K] = 0.0
  }

  MaxAngularMomentum = {
    C = "p"
    H = "s"
  }

  SlaterKosterFiles = Type2FileNames {
    Prefix = "./"
    Separator = "-"
    Suffix = ".skf"
  }

  Hybrid = CAM {
    CoulombMatrix = Truncated {
      CoulombCutoff = 2.885010
      GSummationCutoff = 50.985000
    }
    Screening = MatrixBased {}
  }

  KPointsAndWeights = SupercellFolding {
     1   0   0
     0   1   0
     0   0   1
    0.0 0.0 0.0
  }

}

Analysis {
  CalculateForces = Yes
}

Options {
  WriteResultsTag = No
  WriteAutotestTag = Yes
}

ParserOptions {
  ParserVersion = 13
}

Parallel {
  Groups = 1
  UseOmpThreads = No
}
