Geometry = GenFormat {
   <<< Acene_rattled.gen
}

Hamiltonian = DFTB {

  SCC = Yes
  MaxSccIterations = 100
  SccTolerance = 1e-12

  Filling = Fermi {
    Temperature [K] = 0.0
  }

  MaxAngularMomentum = {
    C = "p"
    H = "s"
  }

  SlaterKosterFiles = Type2FileNames {
    Prefix = "slakos/origin/ob2-1-1/shift/"
    Separator = "-"
    Suffix = ".skf"
  }

  RangeSeparated = LC {
    GammaType = "truncated+damping"
    GSummationCutoff = 50.985000
    GammaCutoff = 2.885010
    Screening = NeighbourBased {
      Threshold = 1e-100
    }
  }

  KPointsAndWeights = SupercellFolding {
     1   0   0
     0   1   0
     0   0   1
    0.0 0.0 0.0
  }

}

Analysis {
  CalculateForces = Yes
}

Options {
  WriteResultsTag = Yes
  WriteAutotestTag = Yes
}

Parallel {
  Groups = 1
  UseOmpThreads = No
}
